409 384 383 410 411 412 418 419 417 413 414 416 415 351 352 353 354 355 356 357 360 363 364 346 362 361 359 358 349 350 348 347 345 344 343 342 341 340 330 331 332 333 339 338 337 336 335 334 283 284 285 286 287 280 281 282 279 278 277 276 288 289 290 291 292 275 274 273 272 271 267 268 269 270 293 294 295 296 297 298 266 265 264 263 262 259 258 299 300 257 256 260 261 255 253 254 252 251 250 249 248 241 242 243 244 245 247 246 238 239 240 237 236 235 234 232 233 231 230 229 228 227 189 225 226 190 191 192 219 218 220 221 222 224 223 217 216 215 214 213 212 211 210 209 193 194 195 196 197 205 206 207 208 203 204 202 201 200 199 198 184 185 183 182 186 188 187 538 537 539 540 176 177 178 179 181 180 169 171 170 172 175 174 173 108 109 107 542 541 543 544 545 546 547 103 104 105 106 117 116 115 110 111 114 112 113 161 160 162 168 163 167 166 164 165 154 155 159 156 153 157 158 145 144 143 142 146 147 148 152 149 150 151 141 140 139 138 137 136 135 134 133 132 131 130 129 128 127 126 125 124 69 70 68 67 66 65 72 71 123 122 121 120 118 119 73 74 75 77 76 64 62 63 60 61 79 80 81 59 58 57 82 83 84 51 52 53 56 55 54 50 49 48 47 43 44 45 46 91 92 85 86 87 78 88 89 90 93 555 554 553 552 101 100 99 98 97 94 95 96 102 551 550 559 558 557 556 40 41 42 39 38 37 36 35 34 33 32 30 31 29 28 27 26 25 24 21 22 23 12 13 14 15 16 11 10 9 7 8 17 18 19 20 568 569 570 571 573 572 6 5 0 4 1 2 3 437 438 436 435 434 433 432 430 431 429 428 427 426 420 421 422 423 424 425 382 386 385 387 388 389 390 392 391 393 375 376 377 378 379 380 381 445 444 443 442 446 447 448 449 450 441 440 439 454 455 456 457 458 459 460 463 462 461 452 453 499 500 501 498 497 496 470 465 464 466 467 468 469 471 472 473 474 567 566 565 564 563 562 561 560 549 548 478 477 479 480 476 475 482 481 483 484 485 486 487 535 536 534 488 489 533 532 531 530 529 528 511 510 509 513 512 527 522 521 523 526 525 492 491 490 493 524 494 495 518 519 520 517 514 515 516 506 507 508 302 301 303 306 319 320 321 317 318 305 304 307 308 309 310 505 504 503 502 451 311 312 313 316 314 315 374 373 322 323 324 325 326 327 328 329 366 367 365 368 369 370 372 371 396 395 394 397 398 399 400 401 402 403 404 406 407 408 405